100
1000
299
298
295
293
293
291
290
289
288
288
282
282
281
281
280
280
279
279
278
275
274
271
271
270
267
267
263
260
258
256
256
256
249
247
247
246
245
239
239
239
236
236
232
230
222
218
215
214
213
213
213
210
206
204
202
202
201
191
190
189
189
187
187
181
181
179
170
169
168
166
166
161
158
151
149
148
146
145
142
139
137
135
132
130
128
127
123
123
121
120
118
109
107
107
105
105
104
104
102
102
